147	32	4	125	
10	10	10	10

0	0	0	0	0	0	1	1
1	0	1	1	1	2	1	2
2	1	3	0	4	3	1	3
3	4	7	5	0	4	1	4
4	4	6	0	5	6	1	5
5	0	2	1	6	10	2	18	6
6	4	6	0	5	2	2	30	7
7	3	7	0	3	1	1	8
8	6	3	4	0	7	1	9
9	4	3	3	0	2	1	10
10	2	1	4	0	9	1	11
11	4	2	0	8	10	1	12
12	2	2	2	0	3	1	13
13	0	1	2	5	4	1	14
14	0	6	4	2	1	1	15
15	0	6	2	5	3	3	29	24	16
16	2	0	3	1	9	1	17
17	7	0	2	1	6	2	28	20
18	6	0	5	7	2	1	19
19	0	3	7	4	4	2	28	22
20	0	3	5	5	2	1	21
21	3	7	0	5	8	1	22
22	0	6	5	2	1	1	23
23	0	5	5	3	3	1	25
24	0	6	10	5	8	1	25
25	4	4	0	3	4	1	26
26	5	4	3	0	9	1	27
27	0	1	3	2	5	1	31
28	6	6	7	0	8	1	31
29	0	3	3	4	5	1	31
30	5	0	6	6	6	1	31
31	0	0	0	0	0	0
